NAME: C:/Users/ben/git/CSI5183_F2014/CSI5183/Instances/Nodes/60n_10s_15d_instance.tsp
COMMENT: Ben Desjardins (bdesj038@uottawa.ca)
DIMENSION: 60
SPARCITY: 10
%HOLES: 15.0%
EDGE_WEIGHT_TYPE: EUC_2D


NODE	X_LOC	Y_LOC	DEMAND	BATTERY
DATASTART
0	0	0	0	0
1	-39	-305	1	100
2	-123	-436	1	30
3	46	-78	1	99
4	-8	-60	1	21
5	84	-1	1	98
6	201	-6	1	2
7	-72	-134	1	19
8	-166	-84	1	33
9	388	-107	1	58
10	3	-467	1	63
11	132	-271	1	71
12	-254	-123	1	97
13	-25	90	1	10
14	-244	238	1	81
15	216	62	1	52
16	61	10	1	51
17	-303	490	1	39
18	-281	-69	1	38
19	307	242	1	59
20	149	35	1	12
21	-56	-88	1	6
22	415	-236	1	1
23	-147	-403	1	69
24	-231	-164	1	15
25	-125	290	1	30
26	146	-29	1	42
27	19	-398	1	53
28	271	248	1	24
29	468	454	1	38
30	-1	-271	1	53
31	228	452	1	83
32	426	-365	1	99
33	365	220	1	14
34	-158	128	1	84
35	116	84	1	83
36	-117	-372	1	60
37	208	-115	1	98
38	-50	-333	1	10
39	-242	-88	1	47
40	-410	19	1	6
41	-80	341	1	1
42	-279	250	1	23
43	267	319	1	61
44	290	115	1	15
45	-263	-147	1	57
46	215	285	1	55
47	-148	-43	1	20
48	205	-356	1	93
49	-118	93	1	42
50	384	33	1	42
EODATA
NODE	X_LOC	Y_LOC	DEMAND	DEGREE
HOLESTART
0	260	-240	-1	12
1	80	-320	-1	12
2	-260	-420	-1	12
3	280	340	-1	12
4	-420	100	-1	12
5	200	-40	-1	12
6	260	-420	-1	12
7	-40	-200	-1	12
8	-20	300	-1	12
EOHOLE
EOF
